\* problem *\
Minimize
OBJ: 5000 i1 + 5000 i2 + 5000 i3 + 5000 i4 + 5000 i5 + 5000 i6 + 40000 o1
 + 40000 o2 + 40000 o3 + 40000 o4 + 40000 o5 + 40000 o6 + 32000 r1 + 32000 r2
 + 32000 r3 + 32000 r4 + 32000 r5 + 32000 r6
Subject To
_C1: r1 <= 50000
_C10: o4 <= 25000
_C11: o5 <= 25000
_C12: o6 <= 25000
_C13: - i1 + o1 + r1 = 55500
_C14: i1 - i2 + o2 + r2 = 85000
_C15: i2 - i3 + o3 + r3 = 85000
_C16: i3 - i4 + o4 + r4 = 100000
_C17: i4 - i5 + o5 + r5 = 55000
_C18: i5 - i6 + o6 + r6 = 87000
_C2: r2 <= 50000
_C3: r3 <= 50000
_C4: r4 <= 50000
_C5: r5 <= 50000
_C6: r6 <= 50000
_C7: o1 <= 25000
_C8: o2 <= 25000
_C9: o3 <= 25000
End
